n = 12;
r = 1;
T = 12;
d = 1;
graph = [| 0, 1, 1, 1, 1, 1, 1, 1, 1, 1, 1, 1
         | 1, 0, 1, 1, 1, 1, 1, 1, 1, 1, 1, 1
         | 1, 1, 0, 1, 1, 1, 1, 1, 1, 1, 1, 1
         | 1, 1, 1, 0, 1, 1, 1, 1, 1, 1, 1, 1
         | 1, 1, 1, 1, 0, 1, 1, 1, 1, 1, 1, 1
         | 1, 1, 1, 1, 1, 0, 1, 1, 1, 1, 1, 1
         | 1, 1, 1, 1, 1, 1, 0, 1, 1, 1, 1, 1
         | 1, 1, 1, 1, 1, 1, 1, 0, 1, 1, 1, 1
         | 1, 1, 1, 1, 1, 1, 1, 1, 0, 1, 1, 1
         | 1, 1, 1, 1, 1, 1, 1, 1, 1, 0, 1, 1
         | 1, 1, 1, 1, 1, 1, 1, 1, 1, 1, 0, 1
         | 1, 1, 1, 1, 1, 1, 1, 1, 1, 1, 1, 0 |];